set VV := 0 1 2 3 ;
set VS := 0 1 2 3 4 5 6 7 8 9 10 11 12 ;
param cv := 
0 25
1 18
2 19
3 14
;
param cs := 
0 32
1 23
2 24
3 22
4 20
5 34
6 31
7 28
8 25
9 28
10 28
11 25
12 40
;
param bv:	 0 1 2 3 := 
		0 0 22 0 0 
		1 0 0 21 0 
		2 0 0 0 15 
		3 0 0 0 0 
;
param bs:	 0 1 2 3 4 5 6 7 8 9 10 11 12 := 
		0 0 0 0 0 0 0 35 0 30 0 0 0 0 
		1 0 0 40 0 0 0 0 23 0 0 0 0 0 
		2 0 40 0 0 0 0 0 31 38 0 0 0 0 
		3 0 0 0 0 0 0 32 29 0 0 0 0 0 
		4 0 0 0 0 0 27 0 0 0 0 0 0 0 
		5 0 0 0 0 27 0 28 0 0 0 36 0 0 
		6 35 0 0 32 0 28 0 0 0 0 0 40 24 
		7 0 23 31 29 0 0 0 0 0 0 0 0 0 
		8 30 0 38 0 0 0 0 0 0 0 27 0 25 
		9 0 0 0 0 0 0 0 0 0 0 20 0 0 
		10 0 0 0 0 0 36 0 0 27 20 0 0 0 
		11 0 0 0 0 0 0 40 0 0 0 0 0 0 
		12 0 0 0 0 0 0 24 0 25 0 0 0 0 
;
